NAME : E051-05e.521.tour
COMMENT : Cost = 0_521
COMMENT : Found by LKH [Keld Helsgaun] Wed Sep 13 12:59:17 2017
TYPE : TOUR
DIMENSION : 55
TOUR_SECTION
1
9
27
32
29
4
37
36
21
23
2
33
47
53
28
49
24
8
44
25
26
15
7
55
6
50
11
40
34
46
16
45
38
18
13
54
19
14
42
41
20
43
5
48
52
12
3
30
22
17
51
35
31
10
39
-1
EOF
